************************************************************************
file with basedata            : md124_.bas
initial value random generator: 23612
************************************************************************
projects                      :  1
jobs (incl. supersource/sink ):  14
horizon                       :  94
RESOURCES
  - renewable                 :  2   R
  - nonrenewable              :  2   N
  - doubly constrained        :  0   D
************************************************************************
PROJECT INFORMATION:
pronr.  #jobs rel.date duedate tardcost  MPM-Time
    1     12      0       15        4       15
************************************************************************
PRECEDENCE RELATIONS:
jobnr.    #modes  #successors   successors
   1        1          3           2   3   4
   2        3          3           6   8  12
   3        3          3           5   6   7
   4        3          2          11  13
   5        3          3           9  10  12
   6        3          2           9  10
   7        3          3           9  12  13
   8        3          2          10  11
   9        3          1          11
  10        3          1          13
  11        3          1          14
  12        3          1          14
  13        3          1          14
  14        1          0        
************************************************************************
REQUESTS/DURATIONS:
jobnr. mode duration  R 1  R 2  N 1  N 2
------------------------------------------------------------------------
  1      1     0       0    0    0    0
  2      1     4      10    0    8    2
         2     6       0    7    6    2
         3    10      10    0    5    2
  3      1     4       0    8    7   10
         2     5       0    8    6    8
         3     8       0    8    6    7
  4      1     2       0    3    6    7
         2     3       8    0    4    6
         3     8       8    0    3    5
  5      1     1       8    0    6   10
         2     3       5    0    5    7
         3     7       0    3    5    5
  6      1     5       0    5    8    6
         2     7       0    5    7    5
         3     9       4    0    6    4
  7      1     4       0    5   10    8
         2     6       8    0    9    8
         3     6      10    0    8    7
  8      1     1       8    0    4    9
         2     1       0   10    4    8
         3     8       0    9    4    7
  9      1     3       6    0    3   10
         2     4       0    9    2    9
         3     9       0    6    2    9
 10      1     1       6    0    7    3
         2     4       0    6    6    3
         3    10       6    0    6    3
 11      1     3       8    0    7    8
         2     3       0   10    6    6
         3     7       7    0    5    5
 12      1     3       0    2    9    4
         2     6       0    1    9    2
         3     8       7    0    8    2
 13      1     2       0    7    8    8
         2     3       0    5    8    6
         3     4       0    2    6    5
 14      1     0       0    0    0    0
************************************************************************
RESOURCEAVAILABILITIES:
  R 1  R 2  N 1  N 2
   30   23   83   85
************************************************************************
